Route #1: 96 61 15 17 52 92 119
Route #2: 48 10 3 40 74 19 97 60
Route #3: 59 35 42 106 26 114 90 117 130
Route #4: 14 64 16 82 85 108 71 5 28 23 56 127 21 68 45 9 31 69 8 122 6 98 7 109
Route #5: 101 123 12 115 132 102 53 41
Route #6: 25 38 89 103 95 94 43 66 29 76 99 24 78 54 67 91
Route #7: 32 93 2 70 50 118 65 49 128
Route #8: 113 80 44 37 112 121 72 62 30
Route #9: 120 58 105 100 47 22 46 107 86
Route #10: 129 126 116 81 131 20 18 110 133
Route #11: 4 73 87 34 125 13 134 83 77
Route #12: 79 88 75 27 36 51 39 84
Route #13: 57 124 111 55 33 63 11 104
